outputs/case_116.model.txt
legal_compliance_communication_system_established = False
operation_and_management_rules_updated = False
foreign_unit_legal_compliance_supervised_flag = False
foreign_unit_legal_compliance_risk_control_established_and_verified = False
legal_compliance_opinion_issued_and_signed = False
legal_compliance_evaluation_and_supervision_defined = False
legal_compliance_training_given = False
legal_compliance_internal_rules_implementation_supervised = False
legal_compliance_self_assessment_done_semianually_and_reported = False
legal_compliance_self_assessment_responsible_person_assigned = False
legal_compliance_self_assessment_records_retained_5_years = False
internal_control_system_executed = True
internal_control_system_established = True
internal_handling_system_executed = True
internal_operation_system_executed = True
internal_handling_system_established = True
internal_operation_system_established = True
internal_operation_executed = True
legal_compliance_training_provided = False
internal_handling_established = True
foreign_unit_legal_compliance_risk_control = False
compliance_systems_ok = True
internal_operation_ok = True
internal_handling_ok = True
legal_compliance_opinion_signed = False
legal_compliance_evaluation_defined = False
legal_compliance_self_assessment_periodic = False
legal_compliance_self_assessment_responsible = False
legal_compliance_unit_established = False
internal_control_executed = True
legal_compliance_implementation_supervised = False
penalty = False
legal_compliance_rules_updated = False
internal_operation_established = True
internal_handling_executed = True
internal_control_established = True
internal_control_ok = True
legal_compliance_self_assessment_records_retained = False
foreign_unit_legal_compliance_supervised = False